; benchmark generated from python API
(set-info :status unknown)
(declare-fun rsi () (_ BitVec 64))
(declare-fun rdi () (_ BitVec 64))
(assert
 (let ((?x14 ((_ extract 31 0) rsi)))
 (let (($x6178 (= ?x14 (_ bv0 32))))
 (let ((?x9 ((_ extract 31 0) rdi)))
 (let (($x18 (bvsle (_ bv1 32) ?x9)))
 (let (($x25 (bvsle (_ bv2 32) ?x9)))
 (let (($x441 (not $x25)))
 (let (($x32 (bvsle (_ bv3 32) ?x9)))
 (let (($x39 (bvsle (_ bv4 32) ?x9)))
 (let (($x46 (bvsle (_ bv5 32) ?x9)))
 (let (($x435 (not $x46)))
 (let (($x53 (bvsle (_ bv6 32) ?x9)))
 (let (($x60 (bvsle (_ bv7 32) ?x9)))
 (let (($x431 (not $x60)))
 (let (($x67 (bvsle (_ bv8 32) ?x9)))
 (let (($x429 (not $x67)))
 (let (($x74 (bvsle (_ bv9 32) ?x9)))
 (let (($x427 (not $x74)))
 (let (($x6205 (and $x427 $x67 $x60 $x53 $x46 $x39 $x32 $x25 $x18 (= (bvmul (_ bv4294967288 32) ?x14) (_ bv0 32)))))
 (let (($x81 (bvsle (_ bv10 32) ?x9)))
 (let (($x425 (not $x81)))
 (let (($x88 (bvsle (_ bv11 32) ?x9)))
 (let (($x423 (not $x88)))
 (let (($x6202 (and $x423 $x81 $x74 $x67 $x60 $x53 $x46 $x39 $x32 $x25 $x18 (= (bvmul (_ bv4294967286 32) ?x14) (_ bv0 32)))))
 (let (($x95 (bvsle (_ bv12 32) ?x9)))
 (let (($x421 (not $x95)))
 (let (($x6200 (and $x421 $x88 $x81 $x74 $x67 $x60 $x53 $x46 $x39 $x32 $x25 $x18 $x6178)))
 (let (($x102 (bvsle (_ bv13 32) ?x9)))
 (let (($x419 (not $x102)))
 (let (($x6199 (and $x419 $x95 $x88 $x81 $x74 $x67 $x60 $x53 $x46 $x39 $x32 $x25 $x18 (= (bvmul (_ bv4294967284 32) ?x14) (_ bv0 32)))))
 (let (($x109 (bvsle (_ bv14 32) ?x9)))
 (let (($x417 (not $x109)))
 (let (($x6197 (and $x417 $x102 $x95 $x88 $x81 $x74 $x67 $x60 $x53 $x46 $x39 $x32 $x25 $x18 $x6178)))
 (let (($x116 (bvsle (_ bv15 32) ?x9)))
 (let (($x415 (not $x116)))
 (let (($x6196 (and $x415 $x109 $x102 $x95 $x88 $x81 $x74 $x67 $x60 $x53 $x46 $x39 $x32 $x25 $x18 (= (bvmul (_ bv4294967282 32) ?x14) (_ bv0 32)))))
 (let (($x123 (bvsle (_ bv16 32) ?x9)))
 (let (($x413 (not $x123)))
 (let (($x6194 (and $x413 $x116 $x109 $x102 $x95 $x88 $x81 $x74 $x67 $x60 $x53 $x46 $x39 $x32 $x25 $x18 $x6178)))
 (let (($x130 (bvsle (_ bv17 32) ?x9)))
 (let (($x411 (not $x130)))
 (let (($x6193 (and $x411 $x123 $x116 $x109 $x102 $x95 $x88 $x81 $x74 $x67 $x60 $x53 $x46 $x39 $x32 $x25 $x18 (= (bvmul (_ bv4294967280 32) ?x14) (_ bv0 32)))))
 (let (($x137 (bvsle (_ bv18 32) ?x9)))
 (let (($x409 (not $x137)))
 (let (($x6191 (and $x409 $x130 $x123 $x116 $x109 $x102 $x95 $x88 $x81 $x74 $x67 $x60 $x53 $x46 $x39 $x32 $x25 $x18 $x6178)))
 (let (($x144 (bvsle (_ bv19 32) ?x9)))
 (let (($x407 (not $x144)))
 (let (($x6190 (and $x407 $x137 $x130 $x123 $x116 $x109 $x102 $x95 $x88 $x81 $x74 $x67 $x60 $x53 $x46 $x39 $x32 $x25 $x18 (= (bvmul (_ bv4294967278 32) ?x14) (_ bv0 32)))))
 (let (($x151 (bvsle (_ bv20 32) ?x9)))
 (let (($x405 (not $x151)))
 (let (($x6188 (and $x405 $x144 $x137 $x130 $x123 $x116 $x109 $x102 $x95 $x88 $x81 $x74 $x67 $x60 $x53 $x46 $x39 $x32 $x25 $x18 $x6178)))
 (let (($x158 (bvsle (_ bv21 32) ?x9)))
 (let (($x403 (not $x158)))
 (let (($x6187 (and $x403 $x151 $x144 $x137 $x130 $x123 $x116 $x109 $x102 $x95 $x88 $x81 $x74 $x67 $x60 $x53 $x46 $x39 $x32 $x25 $x18 (= (bvmul (_ bv4294967276 32) ?x14) (_ bv0 32)))))
 (let (($x165 (bvsle (_ bv22 32) ?x9)))
 (let (($x401 (not $x165)))
 (let (($x6185 (and $x401 $x158 $x151 $x144 $x137 $x130 $x123 $x116 $x109 $x102 $x95 $x88 $x81 $x74 $x67 $x60 $x53 $x46 $x39 $x32 $x25 $x18 $x6178)))
 (let (($x172 (bvsle (_ bv23 32) ?x9)))
 (let (($x399 (not $x172)))
 (let (($x6184 (and $x399 $x165 $x158 $x151 $x144 $x137 $x130 $x123 $x116 $x109 $x102 $x95 $x88 $x81 $x74 $x67 $x60 $x53 $x46 $x39 $x32 $x25 $x18 (= (bvmul (_ bv4294967274 32) ?x14) (_ bv0 32)))))
 (let (($x179 (bvsle (_ bv24 32) ?x9)))
 (let (($x397 (not $x179)))
 (let (($x6182 (and $x397 $x172 $x165 $x158 $x151 $x144 $x137 $x130 $x123 $x116 $x109 $x102 $x95 $x88 $x81 $x74 $x67 $x60 $x53 $x46 $x39 $x32 $x25 $x18 $x6178)))
 (let (($x186 (bvsle (_ bv25 32) ?x9)))
 (let (($x395 (not $x186)))
 (let (($x6181 (and $x395 $x179 $x172 $x165 $x158 $x151 $x144 $x137 $x130 $x123 $x116 $x109 $x102 $x95 $x88 $x81 $x74 $x67 $x60 $x53 $x46 $x39 $x32 $x25 $x18 (= (bvmul (_ bv4294967272 32) ?x14) (_ bv0 32)))))
 (let (($x393 (not (bvsle (_ bv26 32) ?x9))))
 (let (($x6179 (and $x393 $x186 $x179 $x172 $x165 $x158 $x151 $x144 $x137 $x130 $x123 $x116 $x109 $x102 $x95 $x88 $x81 $x74 $x67 $x60 $x53 $x46 $x39 $x32 $x25 $x18 $x6178)))
 (let (($x443 (not $x18)))
 (let (($x6216 (or $x443 $x6179 $x6181 $x6182 $x6184 $x6185 $x6187 $x6188 $x6190 $x6191 $x6193 $x6194 $x6196 $x6197 $x6199 $x6200 $x6202 (and $x425 $x74 $x67 $x60 $x53 $x46 $x39 $x32 $x25 $x18 $x6178) $x6205 (and $x429 $x60 $x53 $x46 $x39 $x32 $x25 $x18 $x6178) (and $x431 $x53 $x46 $x39 $x32 $x25 $x18 (= (bvmul (_ bv4294967290 32) ?x14) (_ bv0 32))) (and (not $x53) $x46 $x39 $x32 $x25 $x18 $x6178) (and $x435 $x39 $x32 $x25 $x18 (= (bvmul (_ bv4294967292 32) ?x14) (_ bv0 32))) (and (not $x39) $x32 $x25 $x18 $x6178) (and (not $x32) $x25 $x18 (= (bvmul (_ bv4294967294 32) ?x14) (_ bv0 32))) (and $x441 $x18 $x6178))))
 (let (($x194 (bvsle (_ bv1 32) ?x14)))
 (let (($x199 (bvsle (_ bv2 32) ?x14)))
 (let (($x204 (bvsle (_ bv3 32) ?x14)))
 (let (($x384 (not $x204)))
 (let (($x209 (bvsle (_ bv4 32) ?x14)))
 (let (($x214 (bvsle (_ bv5 32) ?x14)))
 (let (($x380 (not $x214)))
 (let (($x6139 (= ?x9 (_ bv0 32))))
 (let (($x219 (bvsle (_ bv6 32) ?x14)))
 (let (($x378 (not $x219)))
 (let (($x224 (bvsle (_ bv7 32) ?x14)))
 (let (($x376 (not $x224)))
 (let (($x229 (bvsle (_ bv8 32) ?x14)))
 (let (($x374 (not $x229)))
 (let (($x234 (bvsle (_ bv9 32) ?x14)))
 (let (($x372 (not $x234)))
 (let (($x6166 (and $x372 $x229 $x224 $x219 $x214 $x209 $x204 $x199 $x194 (= (bvmul (_ bv8 32) ?x9) (_ bv0 32)))))
 (let (($x239 (bvsle (_ bv10 32) ?x14)))
 (let (($x370 (not $x239)))
 (let (($x244 (bvsle (_ bv11 32) ?x14)))
 (let (($x368 (not $x244)))
 (let (($x6163 (and $x368 $x239 $x234 $x229 $x224 $x219 $x214 $x209 $x204 $x199 $x194 (= (bvmul (_ bv10 32) ?x9) (_ bv0 32)))))
 (let (($x249 (bvsle (_ bv12 32) ?x14)))
 (let (($x366 (not $x249)))
 (let (($x6161 (and $x366 $x244 $x239 $x234 $x229 $x224 $x219 $x214 $x209 $x204 $x199 $x194 $x6139)))
 (let (($x254 (bvsle (_ bv13 32) ?x14)))
 (let (($x364 (not $x254)))
 (let (($x6160 (and $x364 $x249 $x244 $x239 $x234 $x229 $x224 $x219 $x214 $x209 $x204 $x199 $x194 (= (bvmul (_ bv12 32) ?x9) (_ bv0 32)))))
 (let (($x259 (bvsle (_ bv14 32) ?x14)))
 (let (($x362 (not $x259)))
 (let (($x6158 (and $x362 $x254 $x249 $x244 $x239 $x234 $x229 $x224 $x219 $x214 $x209 $x204 $x199 $x194 $x6139)))
 (let (($x264 (bvsle (_ bv15 32) ?x14)))
 (let (($x360 (not $x264)))
 (let (($x6157 (and $x360 $x259 $x254 $x249 $x244 $x239 $x234 $x229 $x224 $x219 $x214 $x209 $x204 $x199 $x194 (= (bvmul (_ bv14 32) ?x9) (_ bv0 32)))))
 (let (($x269 (bvsle (_ bv16 32) ?x14)))
 (let (($x358 (not $x269)))
 (let (($x6155 (and $x358 $x264 $x259 $x254 $x249 $x244 $x239 $x234 $x229 $x224 $x219 $x214 $x209 $x204 $x199 $x194 $x6139)))
 (let (($x274 (bvsle (_ bv17 32) ?x14)))
 (let (($x356 (not $x274)))
 (let (($x6154 (and $x356 $x269 $x264 $x259 $x254 $x249 $x244 $x239 $x234 $x229 $x224 $x219 $x214 $x209 $x204 $x199 $x194 (= (bvmul (_ bv16 32) ?x9) (_ bv0 32)))))
 (let (($x279 (bvsle (_ bv18 32) ?x14)))
 (let (($x354 (not $x279)))
 (let (($x6152 (and $x354 $x274 $x269 $x264 $x259 $x254 $x249 $x244 $x239 $x234 $x229 $x224 $x219 $x214 $x209 $x204 $x199 $x194 $x6139)))
 (let (($x284 (bvsle (_ bv19 32) ?x14)))
 (let (($x352 (not $x284)))
 (let (($x6151 (and $x352 $x279 $x274 $x269 $x264 $x259 $x254 $x249 $x244 $x239 $x234 $x229 $x224 $x219 $x214 $x209 $x204 $x199 $x194 (= (bvmul (_ bv18 32) ?x9) (_ bv0 32)))))
 (let (($x289 (bvsle (_ bv20 32) ?x14)))
 (let (($x350 (not $x289)))
 (let (($x6149 (and $x350 $x284 $x279 $x274 $x269 $x264 $x259 $x254 $x249 $x244 $x239 $x234 $x229 $x224 $x219 $x214 $x209 $x204 $x199 $x194 $x6139)))
 (let (($x294 (bvsle (_ bv21 32) ?x14)))
 (let (($x348 (not $x294)))
 (let (($x6148 (and $x348 $x289 $x284 $x279 $x274 $x269 $x264 $x259 $x254 $x249 $x244 $x239 $x234 $x229 $x224 $x219 $x214 $x209 $x204 $x199 $x194 (= (bvmul (_ bv20 32) ?x9) (_ bv0 32)))))
 (let (($x299 (bvsle (_ bv22 32) ?x14)))
 (let (($x346 (not $x299)))
 (let (($x6146 (and $x346 $x294 $x289 $x284 $x279 $x274 $x269 $x264 $x259 $x254 $x249 $x244 $x239 $x234 $x229 $x224 $x219 $x214 $x209 $x204 $x199 $x194 $x6139)))
 (let (($x304 (bvsle (_ bv23 32) ?x14)))
 (let (($x344 (not $x304)))
 (let (($x6145 (and $x344 $x299 $x294 $x289 $x284 $x279 $x274 $x269 $x264 $x259 $x254 $x249 $x244 $x239 $x234 $x229 $x224 $x219 $x214 $x209 $x204 $x199 $x194 (= (bvmul (_ bv22 32) ?x9) (_ bv0 32)))))
 (let (($x309 (bvsle (_ bv24 32) ?x14)))
 (let (($x342 (not $x309)))
 (let (($x6143 (and $x342 $x304 $x299 $x294 $x289 $x284 $x279 $x274 $x269 $x264 $x259 $x254 $x249 $x244 $x239 $x234 $x229 $x224 $x219 $x214 $x209 $x204 $x199 $x194 $x6139)))
 (let (($x314 (bvsle (_ bv25 32) ?x14)))
 (let (($x340 (not $x314)))
 (let (($x6142 (and $x340 $x309 $x304 $x299 $x294 $x289 $x284 $x279 $x274 $x269 $x264 $x259 $x254 $x249 $x244 $x239 $x234 $x229 $x224 $x219 $x214 $x209 $x204 $x199 $x194 (= (bvmul (_ bv24 32) ?x9) (_ bv0 32)))))
 (let (($x338 (not (bvsle (_ bv26 32) ?x14))))
 (let (($x6140 (and $x338 $x314 $x309 $x304 $x299 $x294 $x289 $x284 $x279 $x274 $x269 $x264 $x259 $x254 $x249 $x244 $x239 $x234 $x229 $x224 $x219 $x214 $x209 $x204 $x199 $x194 $x6139)))
 (let (($x388 (not $x194)))
 (let (($x6177 (or $x388 $x6140 $x6142 $x6143 $x6145 $x6146 $x6148 $x6149 $x6151 $x6152 $x6154 $x6155 $x6157 $x6158 $x6160 $x6161 $x6163 (and $x370 $x234 $x229 $x224 $x219 $x214 $x209 $x204 $x199 $x194 $x6139) $x6166 (and $x374 $x224 $x219 $x214 $x209 $x204 $x199 $x194 $x6139) (and $x376 $x219 $x214 $x209 $x204 $x199 $x194 (= (bvmul (_ bv6 32) ?x9) (_ bv0 32))) (and $x378 $x214 $x209 $x204 $x199 $x194 $x6139) (and $x380 $x209 $x204 $x199 $x194 (= (bvmul (_ bv4 32) ?x9) (_ bv0 32))) (and (not $x209) $x204 $x199 $x194 $x6139) (and $x384 $x199 $x194 (= (bvmul (_ bv2 32) ?x9) (_ bv0 32))) (and (not $x199) $x194 $x6139))))
 (and $x6177 $x6216)))))))))))))))))))))))))))))))))))))))))))))))))))))))))))))))))))))))))))))))))))))))))))))))))))))))))))))))))))))))))))))))))))))))))))
(check-sat)
